; benchmark generated from python API
(set-info :status unknown)
(declare-fun x_epoch () (_ BitVec 32))
(declare-fun x_plus_epoch () (_ BitVec 32))
(declare-fun x_plus_month () (_ BitVec 32))
(declare-fun x_plus_year () (_ BitVec 32))
(declare-fun x_plus_day () (_ BitVec 32))
(declare-fun x_plus_1_epoch () (_ BitVec 32))
(assert
 (bvsle (_ bv4294930771 32) x_epoch))
(assert
 (bvsge (_ bv36523 32) x_epoch))
(assert
 (bvsge x_epoch (_ bv8341 32)))
(assert
 (bvsle x_epoch (_ bv8371 32)))
(assert
 (bvsle (_ bv4294930771 32) x_plus_epoch))
(assert
 (bvsge (_ bv36523 32) x_plus_epoch))
(assert
 (let (($x3631 (= x_plus_month (_ bv11 32))))
 (let (($x3774 (= x_plus_month (_ bv9 32))))
 (let (($x3540 (= x_plus_month (_ bv6 32))))
 (let (($x1963 (= x_plus_month (_ bv4 32))))
 (let ((?x3124 (ite (or $x1963 $x3540 $x3774 $x3631) (_ bv30 32) (_ bv31 32))))
 (let (($x3095 (and (= (bvsmod x_plus_year (_ bv4 32)) (_ bv0 32)) (and (distinct (bvsmod x_plus_year (_ bv100 32)) (_ bv0 32)) true))))
 (let (($x2846 (or $x3095 (= (bvsmod x_plus_year (_ bv400 32)) (_ bv0 32)))))
 (let (($x3000 (= x_plus_month (_ bv2 32))))
 (let (($x1455 (bvsle (_ bv1 32) x_plus_day)))
 (let (($x3017 (bvsle (_ bv1 32) x_plus_month)))
 (let (($x2684 (bvsle (_ bv1900 32) x_plus_year)))
 (and $x2684 (bvsge (_ bv2100 32) x_plus_year) $x3017 (bvsge (_ bv12 32) x_plus_month) $x1455 (bvsle x_plus_day (ite $x3000 (ite $x2846 (_ bv29 32) (_ bv28 32)) ?x3124)))))))))))))))
(assert
 (let (($x3095 (and (= (bvsmod x_plus_year (_ bv4 32)) (_ bv0 32)) (and (distinct (bvsmod x_plus_year (_ bv100 32)) (_ bv0 32)) true))))
 (let (($x2846 (or $x3095 (= (bvsmod x_plus_year (_ bv400 32)) (_ bv0 32)))))
 (let ((?x3362 (ite (= (_ bv2 32) x_plus_month) (ite $x2846 (_ bv31 32) (_ bv31 32)) (ite (= (_ bv1 32) x_plus_month) (ite $x2846 (_ bv0 32) (_ bv0 32)) (_ bv0 32)))))
 (let ((?x1897 (ite (= (_ bv4 32) x_plus_month) (ite $x2846 (_ bv91 32) (_ bv90 32)) (ite (= (_ bv3 32) x_plus_month) (ite $x2846 (_ bv60 32) (_ bv59 32)) ?x3362))))
 (let ((?x2115 (ite (= (_ bv6 32) x_plus_month) (ite $x2846 (_ bv152 32) (_ bv151 32)) (ite (= (_ bv5 32) x_plus_month) (ite $x2846 (_ bv121 32) (_ bv120 32)) ?x1897))))
 (let ((?x1801 (ite (= (_ bv8 32) x_plus_month) (ite $x2846 (_ bv213 32) (_ bv212 32)) (ite (= (_ bv7 32) x_plus_month) (ite $x2846 (_ bv182 32) (_ bv181 32)) ?x2115))))
 (let ((?x2760 (ite (= (_ bv10 32) x_plus_month) (ite $x2846 (_ bv274 32) (_ bv273 32)) (ite (= (_ bv9 32) x_plus_month) (ite $x2846 (_ bv244 32) (_ bv243 32)) ?x1801))))
 (let ((?x1446 (ite (= (_ bv12 32) x_plus_month) (ite $x2846 (_ bv335 32) (_ bv334 32)) (ite (= (_ bv11 32) x_plus_month) (ite $x2846 (_ bv305 32) (_ bv304 32)) ?x2760))))
 (let ((?x2229 (bvadd (bvmul (_ bv365 32) (bvsub x_plus_year (_ bv1 32))) (bvsdiv (bvsub x_plus_year (_ bv1 32)) (_ bv4 32)))))
 (let ((?x3813 (bvadd (bvsub ?x2229 (bvsdiv (bvsub x_plus_year (_ bv1 32)) (_ bv100 32))) (bvsdiv (bvsub x_plus_year (_ bv1 32)) (_ bv400 32)))))
 (= x_plus_epoch (bvsub (bvadd (bvadd ?x3813 ?x1446) (bvsub x_plus_day (_ bv1 32))) (_ bv730179 32))))))))))))))
(assert
 (let ((?x38534 (bvadd x_epoch (_ bv730179 32))))
 (let ((?x2630 (bvsmod ?x38534 (_ bv146097 32))))
 (let ((?x4324 (bvsdiv ?x2630 (_ bv36524 32))))
 (let ((?x4661 (ite (bvsle (_ bv4 32) ?x4324) (_ bv3 32) ?x4324)))
 (let ((?x4678 (bvsub ?x2630 (bvmul ?x4661 (_ bv36524 32)))))
 (let ((?x589 (bvsmod ?x4678 (_ bv1461 32))))
 (let ((?x1294 (bvsdiv ?x589 (_ bv365 32))))
 (let ((?x40515 (ite (bvsle (_ bv4 32) ?x1294) (_ bv3 32) ?x1294)))
 (let ((?x3519 (bvadd (bvadd (bvmul (bvsdiv ?x38534 (_ bv146097 32)) (_ bv400 32)) (bvmul ?x4661 (_ bv100 32))) (bvmul (bvsdiv ?x4678 (_ bv1461 32)) (_ bv4 32)))))
 (let ((?x51043 (bvadd (bvadd ?x3519 ?x40515) (_ bv1 32))))
 (let (($x3698 (or (and (= (bvsmod ?x51043 (_ bv4 32)) (_ bv0 32)) (and (distinct (bvsmod ?x51043 (_ bv100 32)) (_ bv0 32)) true)) (= (bvsmod ?x51043 (_ bv400 32)) (_ bv0 32)))))
 (let ((?x49372 (bvsub ?x589 (bvmul ?x40515 (_ bv365 32)))))
 (let ((?x42689 (ite $x3698 (_ bv31 32) (_ bv31 32))))
 (let (($x3604 (bvsge ?x49372 ?x42689)))
 (let ((?x2598 (ite $x3604 (bvadd (bvsub ?x49372 ?x42689) (_ bv1 32)) (bvadd (bvsub ?x49372 (ite $x3698 (_ bv0 32) (_ bv0 32))) (_ bv1 32)))))
 (let ((?x1479 (ite $x3698 (_ bv60 32) (_ bv59 32))))
 (let (($x2217 (bvsge ?x49372 ?x1479)))
 (let ((?x2842 (ite $x3698 (_ bv91 32) (_ bv90 32))))
 (let (($x2102 (bvsge ?x49372 ?x2842)))
 (let ((?x2252 (ite $x2102 (bvadd (bvsub ?x49372 ?x2842) (_ bv1 32)) (ite $x2217 (bvadd (bvsub ?x49372 ?x1479) (_ bv1 32)) ?x2598))))
 (let ((?x5872 (ite $x3698 (_ bv121 32) (_ bv120 32))))
 (let (($x3525 (bvsge ?x49372 ?x5872)))
 (let ((?x4776 (ite $x3698 (_ bv152 32) (_ bv151 32))))
 (let (($x1713 (bvsge ?x49372 ?x4776)))
 (let ((?x1689 (ite $x1713 (bvadd (bvsub ?x49372 ?x4776) (_ bv1 32)) (ite $x3525 (bvadd (bvsub ?x49372 ?x5872) (_ bv1 32)) ?x2252))))
 (let ((?x4238 (ite $x3698 (_ bv182 32) (_ bv181 32))))
 (let (($x763 (bvsge ?x49372 ?x4238)))
 (let ((?x38093 (ite $x3698 (_ bv213 32) (_ bv212 32))))
 (let (($x412 (bvsge ?x49372 ?x38093)))
 (let ((?x1226 (ite $x412 (bvadd (bvsub ?x49372 ?x38093) (_ bv1 32)) (ite $x763 (bvadd (bvsub ?x49372 ?x4238) (_ bv1 32)) ?x1689))))
 (let ((?x38040 (ite $x3698 (_ bv244 32) (_ bv243 32))))
 (let (($x578 (bvsge ?x49372 ?x38040)))
 (let ((?x1016 (ite $x3698 (_ bv274 32) (_ bv273 32))))
 (let (($x2125 (bvsge ?x49372 ?x1016)))
 (let ((?x1751 (ite $x2125 (bvadd (bvsub ?x49372 ?x1016) (_ bv1 32)) (ite $x578 (bvadd (bvsub ?x49372 ?x38040) (_ bv1 32)) ?x1226))))
 (let ((?x1414 (ite $x3698 (_ bv305 32) (_ bv304 32))))
 (let (($x1691 (bvsge ?x49372 ?x1414)))
 (let ((?x3275 (ite $x3698 (_ bv335 32) (_ bv334 32))))
 (let (($x2413 (bvsge ?x49372 ?x3275)))
 (let ((?x2270 (ite $x2413 (bvadd (bvsub ?x49372 ?x3275) (_ bv1 32)) (ite $x1691 (bvadd (bvsub ?x49372 ?x1414) (_ bv1 32)) ?x1751))))
 (let ((?x3544 (bvadd (bvmul (_ bv0 32) (_ bv12 32)) (_ bv1 32))))
 (let ((?x634 (ite $x1713 (_ bv6 32) (ite $x3525 (_ bv5 32) (ite $x2102 (_ bv4 32) (ite $x2217 (_ bv3 32) (ite $x3604 (_ bv2 32) (_ bv1 32))))))))
 (let ((?x1635 (ite $x1691 (_ bv11 32) (ite $x2125 (_ bv10 32) (ite $x578 (_ bv9 32) (ite $x412 (_ bv8 32) (ite $x763 (_ bv7 32) ?x634)))))))
 (let ((?x3109 (ite $x2413 (_ bv12 32) ?x1635)))
 (let ((?x3565 (bvadd ?x3109 ?x3544)))
 (let ((?x1682 (bvsub (ite (bvuge ?x3565 (_ bv2147483648 32)) (bvsub ?x3565 (_ bv0 32)) ?x3565) (_ bv1 32))))
 (let ((?x1651 (bvsmod ?x1682 (_ bv12 32))))
 (let ((?x1040 (bvadd ?x1651 (_ bv1 32))))
 (let ((?x2993 (ite (or (= ?x1040 (_ bv4 32)) (= ?x1040 (_ bv6 32)) (= ?x1040 (_ bv9 32)) (= ?x1040 (_ bv11 32))) (_ bv30 32) (_ bv31 32))))
 (let ((?x3110 (bvsdiv ?x1682 (_ bv12 32))))
 (let ((?x864 (ite (and (bvuge ?x1682 (_ bv2147483648 32)) (and (distinct (_ bv0 32) ?x1651) true)) (bvsub ?x3110 (_ bv1 32)) ?x3110)))
 (let ((?x3740 (bvadd (_ bv0 32) ?x864)))
 (let ((?x3637 (bvadd ?x51043 ?x3740)))
 (let (($x2207 (or (and (= (bvsmod ?x3637 (_ bv4 32)) (_ bv0 32)) (and (distinct (bvsmod ?x3637 (_ bv100 32)) (_ bv0 32)) true)) (= (bvsmod ?x3637 (_ bv400 32)) (_ bv0 32)))))
 (let ((?x2473 (ite (= ?x1040 (_ bv2 32)) (ite $x2207 (_ bv29 32) (_ bv28 32)) ?x2993)))
 (let ((?x2011 (ite (bvsgt (_ bv1 32) ?x2270) (_ bv1 32) (ite (bvsgt ?x2270 ?x2473) ?x2473 ?x2270))))
 (let ((?x3235 (ite (bvsgt (_ bv1 32) ?x2011) (_ bv1 32) (ite (bvsgt ?x2011 ?x2473) ?x2473 ?x2011))))
 (let ((?x2790 (ite (= (_ bv2 32) ?x1040) (ite $x2207 (_ bv31 32) (_ bv31 32)) (ite (= (_ bv1 32) ?x1040) (ite $x2207 (_ bv0 32) (_ bv0 32)) (_ bv0 32)))))
 (let ((?x1274 (ite (= (_ bv4 32) ?x1040) (ite $x2207 (_ bv91 32) (_ bv90 32)) (ite (= (_ bv3 32) ?x1040) (ite $x2207 (_ bv60 32) (_ bv59 32)) ?x2790))))
 (let ((?x670 (ite (= (_ bv6 32) ?x1040) (ite $x2207 (_ bv152 32) (_ bv151 32)) (ite (= (_ bv5 32) ?x1040) (ite $x2207 (_ bv121 32) (_ bv120 32)) ?x1274))))
 (let ((?x1999 (ite (= (_ bv8 32) ?x1040) (ite $x2207 (_ bv213 32) (_ bv212 32)) (ite (= (_ bv7 32) ?x1040) (ite $x2207 (_ bv182 32) (_ bv181 32)) ?x670))))
 (let ((?x3722 (ite (= (_ bv10 32) ?x1040) (ite $x2207 (_ bv274 32) (_ bv273 32)) (ite (= (_ bv9 32) ?x1040) (ite $x2207 (_ bv244 32) (_ bv243 32)) ?x1999))))
 (let ((?x3215 (ite (= (_ bv12 32) ?x1040) (ite $x2207 (_ bv335 32) (_ bv334 32)) (ite (= (_ bv11 32) ?x1040) (ite $x2207 (_ bv305 32) (_ bv304 32)) ?x3722))))
 (let ((?x1576 (bvadd (bvmul (_ bv365 32) (bvsub ?x3637 (_ bv1 32))) (bvsdiv (bvsub ?x3637 (_ bv1 32)) (_ bv4 32)))))
 (let ((?x2133 (bvadd (bvsub ?x1576 (bvsdiv (bvsub ?x3637 (_ bv1 32)) (_ bv100 32))) (bvsdiv (bvsub ?x3637 (_ bv1 32)) (_ bv400 32)))))
 (let ((?x2258 (bvadd (bvadd (bvsub (bvadd (bvadd ?x2133 ?x3215) (bvsub ?x3235 (_ bv1 32))) (_ bv730179 32)) (_ bv0 32)) (_ bv730179 32))))
 (let ((?x2732 (bvsmod ?x2258 (_ bv146097 32))))
 (let ((?x563 (bvsdiv ?x2732 (_ bv36524 32))))
 (let ((?x769 (ite (bvsle (_ bv4 32) ?x563) (_ bv3 32) ?x563)))
 (let ((?x2660 (bvsub ?x2732 (bvmul ?x769 (_ bv36524 32)))))
 (let ((?x1973 (bvsmod ?x2660 (_ bv1461 32))))
 (let ((?x2698 (bvsdiv ?x1973 (_ bv365 32))))
 (let ((?x1828 (ite (bvsle (_ bv4 32) ?x2698) (_ bv3 32) ?x2698)))
 (let ((?x2702 (bvadd (bvadd (bvmul (bvsdiv ?x2258 (_ bv146097 32)) (_ bv400 32)) (bvmul ?x769 (_ bv100 32))) (bvmul (bvsdiv ?x2660 (_ bv1461 32)) (_ bv4 32)))))
 (let ((?x3284 (bvadd (bvadd ?x2702 ?x1828) (_ bv1 32))))
 (let (($x3096 (= (_ bv0 32) (_ bv0 32))))
 (let ((?x905 (ite $x3096 ?x3637 ?x3284)))
 (= x_plus_year ?x905)))))))))))))))))))))))))))))))))))))))))))))))))))))))))))))))))))))))))))))))
(assert
 (let ((?x38534 (bvadd x_epoch (_ bv730179 32))))
 (let ((?x2630 (bvsmod ?x38534 (_ bv146097 32))))
 (let ((?x4324 (bvsdiv ?x2630 (_ bv36524 32))))
 (let ((?x4661 (ite (bvsle (_ bv4 32) ?x4324) (_ bv3 32) ?x4324)))
 (let ((?x4678 (bvsub ?x2630 (bvmul ?x4661 (_ bv36524 32)))))
 (let ((?x589 (bvsmod ?x4678 (_ bv1461 32))))
 (let ((?x1294 (bvsdiv ?x589 (_ bv365 32))))
 (let ((?x40515 (ite (bvsle (_ bv4 32) ?x1294) (_ bv3 32) ?x1294)))
 (let ((?x3519 (bvadd (bvadd (bvmul (bvsdiv ?x38534 (_ bv146097 32)) (_ bv400 32)) (bvmul ?x4661 (_ bv100 32))) (bvmul (bvsdiv ?x4678 (_ bv1461 32)) (_ bv4 32)))))
 (let ((?x51043 (bvadd (bvadd ?x3519 ?x40515) (_ bv1 32))))
 (let (($x3698 (or (and (= (bvsmod ?x51043 (_ bv4 32)) (_ bv0 32)) (and (distinct (bvsmod ?x51043 (_ bv100 32)) (_ bv0 32)) true)) (= (bvsmod ?x51043 (_ bv400 32)) (_ bv0 32)))))
 (let ((?x49372 (bvsub ?x589 (bvmul ?x40515 (_ bv365 32)))))
 (let ((?x42689 (ite $x3698 (_ bv31 32) (_ bv31 32))))
 (let (($x3604 (bvsge ?x49372 ?x42689)))
 (let ((?x2598 (ite $x3604 (bvadd (bvsub ?x49372 ?x42689) (_ bv1 32)) (bvadd (bvsub ?x49372 (ite $x3698 (_ bv0 32) (_ bv0 32))) (_ bv1 32)))))
 (let ((?x1479 (ite $x3698 (_ bv60 32) (_ bv59 32))))
 (let (($x2217 (bvsge ?x49372 ?x1479)))
 (let ((?x2842 (ite $x3698 (_ bv91 32) (_ bv90 32))))
 (let (($x2102 (bvsge ?x49372 ?x2842)))
 (let ((?x2252 (ite $x2102 (bvadd (bvsub ?x49372 ?x2842) (_ bv1 32)) (ite $x2217 (bvadd (bvsub ?x49372 ?x1479) (_ bv1 32)) ?x2598))))
 (let ((?x5872 (ite $x3698 (_ bv121 32) (_ bv120 32))))
 (let (($x3525 (bvsge ?x49372 ?x5872)))
 (let ((?x4776 (ite $x3698 (_ bv152 32) (_ bv151 32))))
 (let (($x1713 (bvsge ?x49372 ?x4776)))
 (let ((?x1689 (ite $x1713 (bvadd (bvsub ?x49372 ?x4776) (_ bv1 32)) (ite $x3525 (bvadd (bvsub ?x49372 ?x5872) (_ bv1 32)) ?x2252))))
 (let ((?x4238 (ite $x3698 (_ bv182 32) (_ bv181 32))))
 (let (($x763 (bvsge ?x49372 ?x4238)))
 (let ((?x38093 (ite $x3698 (_ bv213 32) (_ bv212 32))))
 (let (($x412 (bvsge ?x49372 ?x38093)))
 (let ((?x1226 (ite $x412 (bvadd (bvsub ?x49372 ?x38093) (_ bv1 32)) (ite $x763 (bvadd (bvsub ?x49372 ?x4238) (_ bv1 32)) ?x1689))))
 (let ((?x38040 (ite $x3698 (_ bv244 32) (_ bv243 32))))
 (let (($x578 (bvsge ?x49372 ?x38040)))
 (let ((?x1016 (ite $x3698 (_ bv274 32) (_ bv273 32))))
 (let (($x2125 (bvsge ?x49372 ?x1016)))
 (let ((?x1751 (ite $x2125 (bvadd (bvsub ?x49372 ?x1016) (_ bv1 32)) (ite $x578 (bvadd (bvsub ?x49372 ?x38040) (_ bv1 32)) ?x1226))))
 (let ((?x1414 (ite $x3698 (_ bv305 32) (_ bv304 32))))
 (let (($x1691 (bvsge ?x49372 ?x1414)))
 (let ((?x3275 (ite $x3698 (_ bv335 32) (_ bv334 32))))
 (let (($x2413 (bvsge ?x49372 ?x3275)))
 (let ((?x2270 (ite $x2413 (bvadd (bvsub ?x49372 ?x3275) (_ bv1 32)) (ite $x1691 (bvadd (bvsub ?x49372 ?x1414) (_ bv1 32)) ?x1751))))
 (let ((?x3544 (bvadd (bvmul (_ bv0 32) (_ bv12 32)) (_ bv1 32))))
 (let ((?x634 (ite $x1713 (_ bv6 32) (ite $x3525 (_ bv5 32) (ite $x2102 (_ bv4 32) (ite $x2217 (_ bv3 32) (ite $x3604 (_ bv2 32) (_ bv1 32))))))))
 (let ((?x1635 (ite $x1691 (_ bv11 32) (ite $x2125 (_ bv10 32) (ite $x578 (_ bv9 32) (ite $x412 (_ bv8 32) (ite $x763 (_ bv7 32) ?x634)))))))
 (let ((?x3109 (ite $x2413 (_ bv12 32) ?x1635)))
 (let ((?x3565 (bvadd ?x3109 ?x3544)))
 (let ((?x1682 (bvsub (ite (bvuge ?x3565 (_ bv2147483648 32)) (bvsub ?x3565 (_ bv0 32)) ?x3565) (_ bv1 32))))
 (let ((?x1651 (bvsmod ?x1682 (_ bv12 32))))
 (let ((?x1040 (bvadd ?x1651 (_ bv1 32))))
 (let ((?x2993 (ite (or (= ?x1040 (_ bv4 32)) (= ?x1040 (_ bv6 32)) (= ?x1040 (_ bv9 32)) (= ?x1040 (_ bv11 32))) (_ bv30 32) (_ bv31 32))))
 (let ((?x3110 (bvsdiv ?x1682 (_ bv12 32))))
 (let ((?x864 (ite (and (bvuge ?x1682 (_ bv2147483648 32)) (and (distinct (_ bv0 32) ?x1651) true)) (bvsub ?x3110 (_ bv1 32)) ?x3110)))
 (let ((?x3740 (bvadd (_ bv0 32) ?x864)))
 (let ((?x3637 (bvadd ?x51043 ?x3740)))
 (let (($x2207 (or (and (= (bvsmod ?x3637 (_ bv4 32)) (_ bv0 32)) (and (distinct (bvsmod ?x3637 (_ bv100 32)) (_ bv0 32)) true)) (= (bvsmod ?x3637 (_ bv400 32)) (_ bv0 32)))))
 (let ((?x2473 (ite (= ?x1040 (_ bv2 32)) (ite $x2207 (_ bv29 32) (_ bv28 32)) ?x2993)))
 (let ((?x2011 (ite (bvsgt (_ bv1 32) ?x2270) (_ bv1 32) (ite (bvsgt ?x2270 ?x2473) ?x2473 ?x2270))))
 (let ((?x3235 (ite (bvsgt (_ bv1 32) ?x2011) (_ bv1 32) (ite (bvsgt ?x2011 ?x2473) ?x2473 ?x2011))))
 (let ((?x2790 (ite (= (_ bv2 32) ?x1040) (ite $x2207 (_ bv31 32) (_ bv31 32)) (ite (= (_ bv1 32) ?x1040) (ite $x2207 (_ bv0 32) (_ bv0 32)) (_ bv0 32)))))
 (let ((?x1274 (ite (= (_ bv4 32) ?x1040) (ite $x2207 (_ bv91 32) (_ bv90 32)) (ite (= (_ bv3 32) ?x1040) (ite $x2207 (_ bv60 32) (_ bv59 32)) ?x2790))))
 (let ((?x670 (ite (= (_ bv6 32) ?x1040) (ite $x2207 (_ bv152 32) (_ bv151 32)) (ite (= (_ bv5 32) ?x1040) (ite $x2207 (_ bv121 32) (_ bv120 32)) ?x1274))))
 (let ((?x1999 (ite (= (_ bv8 32) ?x1040) (ite $x2207 (_ bv213 32) (_ bv212 32)) (ite (= (_ bv7 32) ?x1040) (ite $x2207 (_ bv182 32) (_ bv181 32)) ?x670))))
 (let ((?x3722 (ite (= (_ bv10 32) ?x1040) (ite $x2207 (_ bv274 32) (_ bv273 32)) (ite (= (_ bv9 32) ?x1040) (ite $x2207 (_ bv244 32) (_ bv243 32)) ?x1999))))
 (let ((?x3215 (ite (= (_ bv12 32) ?x1040) (ite $x2207 (_ bv335 32) (_ bv334 32)) (ite (= (_ bv11 32) ?x1040) (ite $x2207 (_ bv305 32) (_ bv304 32)) ?x3722))))
 (let ((?x1576 (bvadd (bvmul (_ bv365 32) (bvsub ?x3637 (_ bv1 32))) (bvsdiv (bvsub ?x3637 (_ bv1 32)) (_ bv4 32)))))
 (let ((?x2133 (bvadd (bvsub ?x1576 (bvsdiv (bvsub ?x3637 (_ bv1 32)) (_ bv100 32))) (bvsdiv (bvsub ?x3637 (_ bv1 32)) (_ bv400 32)))))
 (let ((?x2258 (bvadd (bvadd (bvsub (bvadd (bvadd ?x2133 ?x3215) (bvsub ?x3235 (_ bv1 32))) (_ bv730179 32)) (_ bv0 32)) (_ bv730179 32))))
 (let ((?x2732 (bvsmod ?x2258 (_ bv146097 32))))
 (let ((?x563 (bvsdiv ?x2732 (_ bv36524 32))))
 (let ((?x769 (ite (bvsle (_ bv4 32) ?x563) (_ bv3 32) ?x563)))
 (let ((?x2660 (bvsub ?x2732 (bvmul ?x769 (_ bv36524 32)))))
 (let ((?x1973 (bvsmod ?x2660 (_ bv1461 32))))
 (let ((?x2698 (bvsdiv ?x1973 (_ bv365 32))))
 (let ((?x1828 (ite (bvsle (_ bv4 32) ?x2698) (_ bv3 32) ?x2698)))
 (let ((?x2702 (bvadd (bvadd (bvmul (bvsdiv ?x2258 (_ bv146097 32)) (_ bv400 32)) (bvmul ?x769 (_ bv100 32))) (bvmul (bvsdiv ?x2660 (_ bv1461 32)) (_ bv4 32)))))
 (let ((?x3284 (bvadd (bvadd ?x2702 ?x1828) (_ bv1 32))))
 (let (($x3070 (or (and (= (bvsmod ?x3284 (_ bv4 32)) (_ bv0 32)) (and (distinct (bvsmod ?x3284 (_ bv100 32)) (_ bv0 32)) true)) (= (bvsmod ?x3284 (_ bv400 32)) (_ bv0 32)))))
 (let ((?x964 (ite $x3070 (_ bv31 32) (_ bv31 32))))
 (let ((?x2039 (bvsub ?x1973 (bvmul ?x1828 (_ bv365 32)))))
 (let (($x1985 (bvsge ?x2039 ?x964)))
 (let ((?x3700 (ite $x3070 (_ bv60 32) (_ bv59 32))))
 (let (($x1932 (bvsge ?x2039 ?x3700)))
 (let ((?x3059 (ite $x3070 (_ bv91 32) (_ bv90 32))))
 (let (($x2255 (bvsge ?x2039 ?x3059)))
 (let ((?x3607 (ite $x3070 (_ bv121 32) (_ bv120 32))))
 (let (($x3272 (bvsge ?x2039 ?x3607)))
 (let ((?x3285 (ite $x3070 (_ bv152 32) (_ bv151 32))))
 (let (($x3569 (bvsge ?x2039 ?x3285)))
 (let ((?x3054 (ite $x3569 (_ bv6 32) (ite $x3272 (_ bv5 32) (ite $x2255 (_ bv4 32) (ite $x1932 (_ bv3 32) (ite $x1985 (_ bv2 32) (_ bv1 32))))))))
 (let ((?x2606 (ite $x3070 (_ bv182 32) (_ bv181 32))))
 (let (($x1958 (bvsge ?x2039 ?x2606)))
 (let ((?x3223 (ite $x3070 (_ bv213 32) (_ bv212 32))))
 (let (($x1698 (bvsge ?x2039 ?x3223)))
 (let ((?x2112 (ite $x3070 (_ bv244 32) (_ bv243 32))))
 (let (($x3178 (bvsge ?x2039 ?x2112)))
 (let ((?x2940 (ite $x3070 (_ bv274 32) (_ bv273 32))))
 (let (($x2172 (bvsge ?x2039 ?x2940)))
 (let ((?x2208 (ite $x3070 (_ bv305 32) (_ bv304 32))))
 (let (($x3502 (bvsge ?x2039 ?x2208)))
 (let ((?x746 (ite $x3502 (_ bv11 32) (ite $x2172 (_ bv10 32) (ite $x3178 (_ bv9 32) (ite $x1698 (_ bv8 32) (ite $x1958 (_ bv7 32) ?x3054)))))))
 (let ((?x3880 (ite $x3070 (_ bv335 32) (_ bv334 32))))
 (let (($x1993 (bvsge ?x2039 ?x3880)))
 (let (($x3096 (= (_ bv0 32) (_ bv0 32))))
 (let ((?x1950 (ite $x3096 ?x1040 (ite $x1993 (_ bv12 32) ?x746))))
 (= x_plus_month ?x1950)))))))))))))))))))))))))))))))))))))))))))))))))))))))))))))))))))))))))))))))))))))))))))))))))))))))))
(assert
 (let ((?x38534 (bvadd x_epoch (_ bv730179 32))))
 (let ((?x2630 (bvsmod ?x38534 (_ bv146097 32))))
 (let ((?x4324 (bvsdiv ?x2630 (_ bv36524 32))))
 (let ((?x4661 (ite (bvsle (_ bv4 32) ?x4324) (_ bv3 32) ?x4324)))
 (let ((?x4678 (bvsub ?x2630 (bvmul ?x4661 (_ bv36524 32)))))
 (let ((?x589 (bvsmod ?x4678 (_ bv1461 32))))
 (let ((?x1294 (bvsdiv ?x589 (_ bv365 32))))
 (let ((?x40515 (ite (bvsle (_ bv4 32) ?x1294) (_ bv3 32) ?x1294)))
 (let ((?x3519 (bvadd (bvadd (bvmul (bvsdiv ?x38534 (_ bv146097 32)) (_ bv400 32)) (bvmul ?x4661 (_ bv100 32))) (bvmul (bvsdiv ?x4678 (_ bv1461 32)) (_ bv4 32)))))
 (let ((?x51043 (bvadd (bvadd ?x3519 ?x40515) (_ bv1 32))))
 (let (($x3698 (or (and (= (bvsmod ?x51043 (_ bv4 32)) (_ bv0 32)) (and (distinct (bvsmod ?x51043 (_ bv100 32)) (_ bv0 32)) true)) (= (bvsmod ?x51043 (_ bv400 32)) (_ bv0 32)))))
 (let ((?x49372 (bvsub ?x589 (bvmul ?x40515 (_ bv365 32)))))
 (let ((?x42689 (ite $x3698 (_ bv31 32) (_ bv31 32))))
 (let (($x3604 (bvsge ?x49372 ?x42689)))
 (let ((?x2598 (ite $x3604 (bvadd (bvsub ?x49372 ?x42689) (_ bv1 32)) (bvadd (bvsub ?x49372 (ite $x3698 (_ bv0 32) (_ bv0 32))) (_ bv1 32)))))
 (let ((?x1479 (ite $x3698 (_ bv60 32) (_ bv59 32))))
 (let (($x2217 (bvsge ?x49372 ?x1479)))
 (let ((?x2842 (ite $x3698 (_ bv91 32) (_ bv90 32))))
 (let (($x2102 (bvsge ?x49372 ?x2842)))
 (let ((?x2252 (ite $x2102 (bvadd (bvsub ?x49372 ?x2842) (_ bv1 32)) (ite $x2217 (bvadd (bvsub ?x49372 ?x1479) (_ bv1 32)) ?x2598))))
 (let ((?x5872 (ite $x3698 (_ bv121 32) (_ bv120 32))))
 (let (($x3525 (bvsge ?x49372 ?x5872)))
 (let ((?x4776 (ite $x3698 (_ bv152 32) (_ bv151 32))))
 (let (($x1713 (bvsge ?x49372 ?x4776)))
 (let ((?x1689 (ite $x1713 (bvadd (bvsub ?x49372 ?x4776) (_ bv1 32)) (ite $x3525 (bvadd (bvsub ?x49372 ?x5872) (_ bv1 32)) ?x2252))))
 (let ((?x4238 (ite $x3698 (_ bv182 32) (_ bv181 32))))
 (let (($x763 (bvsge ?x49372 ?x4238)))
 (let ((?x38093 (ite $x3698 (_ bv213 32) (_ bv212 32))))
 (let (($x412 (bvsge ?x49372 ?x38093)))
 (let ((?x1226 (ite $x412 (bvadd (bvsub ?x49372 ?x38093) (_ bv1 32)) (ite $x763 (bvadd (bvsub ?x49372 ?x4238) (_ bv1 32)) ?x1689))))
 (let ((?x38040 (ite $x3698 (_ bv244 32) (_ bv243 32))))
 (let (($x578 (bvsge ?x49372 ?x38040)))
 (let ((?x1016 (ite $x3698 (_ bv274 32) (_ bv273 32))))
 (let (($x2125 (bvsge ?x49372 ?x1016)))
 (let ((?x1751 (ite $x2125 (bvadd (bvsub ?x49372 ?x1016) (_ bv1 32)) (ite $x578 (bvadd (bvsub ?x49372 ?x38040) (_ bv1 32)) ?x1226))))
 (let ((?x1414 (ite $x3698 (_ bv305 32) (_ bv304 32))))
 (let (($x1691 (bvsge ?x49372 ?x1414)))
 (let ((?x3275 (ite $x3698 (_ bv335 32) (_ bv334 32))))
 (let (($x2413 (bvsge ?x49372 ?x3275)))
 (let ((?x2270 (ite $x2413 (bvadd (bvsub ?x49372 ?x3275) (_ bv1 32)) (ite $x1691 (bvadd (bvsub ?x49372 ?x1414) (_ bv1 32)) ?x1751))))
 (let ((?x3544 (bvadd (bvmul (_ bv0 32) (_ bv12 32)) (_ bv1 32))))
 (let ((?x634 (ite $x1713 (_ bv6 32) (ite $x3525 (_ bv5 32) (ite $x2102 (_ bv4 32) (ite $x2217 (_ bv3 32) (ite $x3604 (_ bv2 32) (_ bv1 32))))))))
 (let ((?x1635 (ite $x1691 (_ bv11 32) (ite $x2125 (_ bv10 32) (ite $x578 (_ bv9 32) (ite $x412 (_ bv8 32) (ite $x763 (_ bv7 32) ?x634)))))))
 (let ((?x3109 (ite $x2413 (_ bv12 32) ?x1635)))
 (let ((?x3565 (bvadd ?x3109 ?x3544)))
 (let ((?x1682 (bvsub (ite (bvuge ?x3565 (_ bv2147483648 32)) (bvsub ?x3565 (_ bv0 32)) ?x3565) (_ bv1 32))))
 (let ((?x1651 (bvsmod ?x1682 (_ bv12 32))))
 (let ((?x1040 (bvadd ?x1651 (_ bv1 32))))
 (let ((?x2993 (ite (or (= ?x1040 (_ bv4 32)) (= ?x1040 (_ bv6 32)) (= ?x1040 (_ bv9 32)) (= ?x1040 (_ bv11 32))) (_ bv30 32) (_ bv31 32))))
 (let ((?x3110 (bvsdiv ?x1682 (_ bv12 32))))
 (let ((?x864 (ite (and (bvuge ?x1682 (_ bv2147483648 32)) (and (distinct (_ bv0 32) ?x1651) true)) (bvsub ?x3110 (_ bv1 32)) ?x3110)))
 (let ((?x3740 (bvadd (_ bv0 32) ?x864)))
 (let ((?x3637 (bvadd ?x51043 ?x3740)))
 (let (($x2207 (or (and (= (bvsmod ?x3637 (_ bv4 32)) (_ bv0 32)) (and (distinct (bvsmod ?x3637 (_ bv100 32)) (_ bv0 32)) true)) (= (bvsmod ?x3637 (_ bv400 32)) (_ bv0 32)))))
 (let ((?x2473 (ite (= ?x1040 (_ bv2 32)) (ite $x2207 (_ bv29 32) (_ bv28 32)) ?x2993)))
 (let ((?x2011 (ite (bvsgt (_ bv1 32) ?x2270) (_ bv1 32) (ite (bvsgt ?x2270 ?x2473) ?x2473 ?x2270))))
 (let ((?x3235 (ite (bvsgt (_ bv1 32) ?x2011) (_ bv1 32) (ite (bvsgt ?x2011 ?x2473) ?x2473 ?x2011))))
 (let ((?x2790 (ite (= (_ bv2 32) ?x1040) (ite $x2207 (_ bv31 32) (_ bv31 32)) (ite (= (_ bv1 32) ?x1040) (ite $x2207 (_ bv0 32) (_ bv0 32)) (_ bv0 32)))))
 (let ((?x1274 (ite (= (_ bv4 32) ?x1040) (ite $x2207 (_ bv91 32) (_ bv90 32)) (ite (= (_ bv3 32) ?x1040) (ite $x2207 (_ bv60 32) (_ bv59 32)) ?x2790))))
 (let ((?x670 (ite (= (_ bv6 32) ?x1040) (ite $x2207 (_ bv152 32) (_ bv151 32)) (ite (= (_ bv5 32) ?x1040) (ite $x2207 (_ bv121 32) (_ bv120 32)) ?x1274))))
 (let ((?x1999 (ite (= (_ bv8 32) ?x1040) (ite $x2207 (_ bv213 32) (_ bv212 32)) (ite (= (_ bv7 32) ?x1040) (ite $x2207 (_ bv182 32) (_ bv181 32)) ?x670))))
 (let ((?x3722 (ite (= (_ bv10 32) ?x1040) (ite $x2207 (_ bv274 32) (_ bv273 32)) (ite (= (_ bv9 32) ?x1040) (ite $x2207 (_ bv244 32) (_ bv243 32)) ?x1999))))
 (let ((?x3215 (ite (= (_ bv12 32) ?x1040) (ite $x2207 (_ bv335 32) (_ bv334 32)) (ite (= (_ bv11 32) ?x1040) (ite $x2207 (_ bv305 32) (_ bv304 32)) ?x3722))))
 (let ((?x1576 (bvadd (bvmul (_ bv365 32) (bvsub ?x3637 (_ bv1 32))) (bvsdiv (bvsub ?x3637 (_ bv1 32)) (_ bv4 32)))))
 (let ((?x2133 (bvadd (bvsub ?x1576 (bvsdiv (bvsub ?x3637 (_ bv1 32)) (_ bv100 32))) (bvsdiv (bvsub ?x3637 (_ bv1 32)) (_ bv400 32)))))
 (let ((?x2258 (bvadd (bvadd (bvsub (bvadd (bvadd ?x2133 ?x3215) (bvsub ?x3235 (_ bv1 32))) (_ bv730179 32)) (_ bv0 32)) (_ bv730179 32))))
 (let ((?x2732 (bvsmod ?x2258 (_ bv146097 32))))
 (let ((?x563 (bvsdiv ?x2732 (_ bv36524 32))))
 (let ((?x769 (ite (bvsle (_ bv4 32) ?x563) (_ bv3 32) ?x563)))
 (let ((?x2660 (bvsub ?x2732 (bvmul ?x769 (_ bv36524 32)))))
 (let ((?x1973 (bvsmod ?x2660 (_ bv1461 32))))
 (let ((?x2698 (bvsdiv ?x1973 (_ bv365 32))))
 (let ((?x1828 (ite (bvsle (_ bv4 32) ?x2698) (_ bv3 32) ?x2698)))
 (let ((?x2702 (bvadd (bvadd (bvmul (bvsdiv ?x2258 (_ bv146097 32)) (_ bv400 32)) (bvmul ?x769 (_ bv100 32))) (bvmul (bvsdiv ?x2660 (_ bv1461 32)) (_ bv4 32)))))
 (let ((?x3284 (bvadd (bvadd ?x2702 ?x1828) (_ bv1 32))))
 (let (($x3070 (or (and (= (bvsmod ?x3284 (_ bv4 32)) (_ bv0 32)) (and (distinct (bvsmod ?x3284 (_ bv100 32)) (_ bv0 32)) true)) (= (bvsmod ?x3284 (_ bv400 32)) (_ bv0 32)))))
 (let ((?x2039 (bvsub ?x1973 (bvmul ?x1828 (_ bv365 32)))))
 (let ((?x964 (ite $x3070 (_ bv31 32) (_ bv31 32))))
 (let (($x1985 (bvsge ?x2039 ?x964)))
 (let ((?x2482 (ite $x1985 (bvadd (bvsub ?x2039 ?x964) (_ bv1 32)) (bvadd (bvsub ?x2039 (ite $x3070 (_ bv0 32) (_ bv0 32))) (_ bv1 32)))))
 (let ((?x3700 (ite $x3070 (_ bv60 32) (_ bv59 32))))
 (let (($x1932 (bvsge ?x2039 ?x3700)))
 (let ((?x3059 (ite $x3070 (_ bv91 32) (_ bv90 32))))
 (let (($x2255 (bvsge ?x2039 ?x3059)))
 (let ((?x3135 (ite $x2255 (bvadd (bvsub ?x2039 ?x3059) (_ bv1 32)) (ite $x1932 (bvadd (bvsub ?x2039 ?x3700) (_ bv1 32)) ?x2482))))
 (let ((?x3607 (ite $x3070 (_ bv121 32) (_ bv120 32))))
 (let (($x3272 (bvsge ?x2039 ?x3607)))
 (let ((?x3285 (ite $x3070 (_ bv152 32) (_ bv151 32))))
 (let (($x3569 (bvsge ?x2039 ?x3285)))
 (let ((?x425 (ite $x3569 (bvadd (bvsub ?x2039 ?x3285) (_ bv1 32)) (ite $x3272 (bvadd (bvsub ?x2039 ?x3607) (_ bv1 32)) ?x3135))))
 (let ((?x2606 (ite $x3070 (_ bv182 32) (_ bv181 32))))
 (let (($x1958 (bvsge ?x2039 ?x2606)))
 (let ((?x3223 (ite $x3070 (_ bv213 32) (_ bv212 32))))
 (let (($x1698 (bvsge ?x2039 ?x3223)))
 (let ((?x2877 (ite $x1698 (bvadd (bvsub ?x2039 ?x3223) (_ bv1 32)) (ite $x1958 (bvadd (bvsub ?x2039 ?x2606) (_ bv1 32)) ?x425))))
 (let ((?x2112 (ite $x3070 (_ bv244 32) (_ bv243 32))))
 (let (($x3178 (bvsge ?x2039 ?x2112)))
 (let ((?x2940 (ite $x3070 (_ bv274 32) (_ bv273 32))))
 (let (($x2172 (bvsge ?x2039 ?x2940)))
 (let ((?x2946 (ite $x2172 (bvadd (bvsub ?x2039 ?x2940) (_ bv1 32)) (ite $x3178 (bvadd (bvsub ?x2039 ?x2112) (_ bv1 32)) ?x2877))))
 (let ((?x2208 (ite $x3070 (_ bv305 32) (_ bv304 32))))
 (let (($x3502 (bvsge ?x2039 ?x2208)))
 (let ((?x3880 (ite $x3070 (_ bv335 32) (_ bv334 32))))
 (let (($x1993 (bvsge ?x2039 ?x3880)))
 (let ((?x3312 (ite $x1993 (bvadd (bvsub ?x2039 ?x3880) (_ bv1 32)) (ite $x3502 (bvadd (bvsub ?x2039 ?x2208) (_ bv1 32)) ?x2946))))
 (let (($x3096 (= (_ bv0 32) (_ bv0 32))))
 (let ((?x2395 (ite $x3096 ?x3235 ?x3312)))
 (= x_plus_day ?x2395)))))))))))))))))))))))))))))))))))))))))))))))))))))))))))))))))))))))))))))))))))))))))))))))))))))))))))))
(assert
 (bvsle (_ bv4294930771 32) x_plus_1_epoch))
(assert
 (bvsge (_ bv36523 32) x_plus_1_epoch))
(assert
 (= x_plus_1_epoch (bvadd x_epoch (_ bv30 32))))
(assert
 (not (= x_plus_epoch x_plus_1_epoch)))
(check-sat)
